
===== New CPLEX run =====
Instance: /home/yorig/tuner/mpils-tests/instances/miplib/easy/mas74.mps
Config: /scratch/yorig/mpils-results-grid-ticks-10000-divide/easy/16proc/seed-4/5_mas74_seed-4_20260429_043455/expansion/config_param_CPXPARAM_MIP_Strategy_StartAlgorithm_4_iter_2.prm
========================

Selected objective sense:  MINIMIZE
Selected objective  name:  obj
Selected RHS        name:  rhs
Selected bound      name:  bnd
Version identifier: 22.1.2.0 | 2024-11-26 | 0edbb82fd
CPXPARAM_Threads                                 8
CPXPARAM_Parallel                                1
CPXPARAM_MIP_Cuts_Cliques                        1
CPXPARAM_MIP_Cuts_Covers                         -1
CPXPARAM_MIP_Strategy_StartAlgorithm             4
CPXPARAM_MIP_Cuts_FlowCovers                     -1
CPXPARAM_MIP_Cuts_Implied                        -1
CPXPARAM_MIP_Cuts_GUBCovers                      -1
CPXPARAM_MIP_Limits_GomoryCand                   10
CPXPARAM_MIP_Cuts_Gomory                         2
CPXPARAM_MIP_Cuts_PathCut                        2
CPXPARAM_MIP_Cuts_MIRCut                         -1
CPXPARAM_MIP_Cuts_Disjunctive                    2
CPXPARAM_Emphasis_MIP                            3
CPXPARAM_MIP_Strategy_RINSHeur                   60
CPXPARAM_DetTimeLimit                            10000
CPXPARAM_MIP_Limits_CutsFactor                   1
Found incumbent of value 157344.610330 after 0.00 sec. (0.02 ticks)
Tried aggregator 1 time.
MIP Presolve eliminated 0 rows and 3 columns.
Reduced MIP has 13 rows, 148 columns, and 1682 nonzeros.
Reduced MIP has 145 binaries, 2 generals, 0 SOSs, and 0 indicators.
Presolve time = 0.00 sec. (0.84 ticks)
Probing time = 0.00 sec. (0.09 ticks)
Tried aggregator 1 time.
Detecting symmetries...
Reduced MIP has 13 rows, 148 columns, and 1682 nonzeros.
Reduced MIP has 145 binaries, 2 generals, 0 SOSs, and 0 indicators.
Presolve time = 0.00 sec. (0.79 ticks)
Probing time = 0.00 sec. (0.09 ticks)
MIP emphasis: best bound.
MIP search method: dynamic search.
Parallel mode: deterministic, using up to 8 threads.
Root relaxation solution time = 0.71 sec. (1.19 ticks)

        Nodes                                         Cuts/
   Node  Left     Objective  IInf  Best Integer    Best Bound    ItCnt     Gap

*     0+    0                       157344.6103        0.0000           100.00%
*     0+    0                        51840.4943        0.0000           100.00%
      0     0    10482.7953    12    51840.4943    10482.7953       17   79.78%
*     0+    0                        19197.4680    10482.7953            45.39%
*     0+    0                        15240.3317    10482.7953            31.22%
*     0+    0                        14372.8713    10482.7953            27.07%
*     0+    0                        13174.3215    10513.0180            20.20%
Detecting symmetries...
      0     2    10482.7953    12    13174.3215    10513.0180       17   20.20%
Elapsed time = 1.01 sec. (11.59 ticks, tree = 0.02 MB, solutions = 6)
*    10+    7                        12915.1000    10526.8584            18.49%
*    61+   42                        12759.1000    10526.8584            17.50%
*    96+   81                        11857.3713    10526.8584            11.22%

Performing restart 1

Repeating presolve.
Tried aggregator 1 time.
MIP Presolve eliminated 0 rows and 48 columns.
Reduced MIP has 13 rows, 100 columns, and 1067 nonzeros.
Reduced MIP has 98 binaries, 1 generals, 0 SOSs, and 0 indicators.
Presolve time = 0.00 sec. (0.39 ticks)
Tried aggregator 1 time.
Reduced MIP has 13 rows, 100 columns, and 1067 nonzeros.
Reduced MIP has 98 binaries, 1 generals, 0 SOSs, and 0 indicators.
Presolve time = 0.00 sec. (0.48 ticks)
Represolve time = 0.00 sec. (1.20 ticks)
   3677   491    10914.8989    12    11857.3713    10716.2392    16948    9.62%
  15314 11242    11362.3545    12    11857.3713    11001.8447    88925    7.22%
  37877 32704    11235.8117    12    11857.3713    11107.4660   235707    6.32%
  50707 44527    11222.1980    12    11857.3713    11107.4660   318204    6.32%

Performing restart 2

Repeating presolve.
Tried aggregator 1 time.
Reduced MIP has 13 rows, 100 columns, and 1067 nonzeros.
Reduced MIP has 99 binaries, 0 generals, 0 SOSs, and 0 indicators.
Presolve time = 0.00 sec. (0.34 ticks)
Tried aggregator 1 time.
Reduced MIP has 13 rows, 100 columns, and 1067 nonzeros.
Reduced MIP has 99 binaries, 0 generals, 0 SOSs, and 0 indicators.
Presolve time = 0.00 sec. (0.48 ticks)
Represolve time = 0.01 sec. (2.10 ticks)
  68241    14    10562.5956    12    11857.3713    11187.9022   437235    5.65%
  77212  7813    11065.9853    12    11857.3713    11187.9022   487709    5.65%
  97727 27362    11139.5469    12    11857.3713    11187.9022   617514    5.65%
 119485 46120    11537.8463     9    11857.3713    11187.9022   745531    5.65%
 141312 65793    11767.2984    10    11857.3713    11231.6756   883973    5.28%
*143466+66851                        11801.1857    11235.7131             4.79%
 228604 136535    11473.2841    11    11801.1857    11339.0815  1408213    3.92%
Elapsed time = 20.06 sec. (3112.30 ticks, tree = 30.92 MB, solutions = 16)
 308986 198762    11403.0971    12    11801.1857    11395.8745  1893352    3.43%
 392486 255817    11472.9058    12    11801.1857    11439.4310  2364407    3.07%
 472282 306777    11627.0774    12    11801.1857    11472.7787  2817630    2.78%
 554088 355188    11783.0379    10    11801.1857    11501.8757  3282410    2.54%
 634276 396659    11544.2892    12    11801.1857    11526.8032  3721435    2.33%
 717200 435620    11593.3505    11    11801.1857    11550.0199  4174345    2.13%
 803804 472121        cutoff          11801.1857    11571.7198  4646806    1.94%

Clique cuts applied:  0
Flow path cuts applied:  0
Gomory fractional cuts applied:  0
Disjunctive cuts applied:  0
Cone linearizations applied:  0

Root node processing (before b&c):
  Real time             =    0.98 sec. (11.55 ticks)
Parallel b&c, 8 threads:
  Real time             =   59.73 sec. (9989.17 ticks)
  Sync time (average)   =   31.15 sec.
  Wait time (average)   =    0.58 sec.
                          ------------
Total (root+branch&cut) =   60.71 sec. (10000.72 ticks)
Gap: 1.9%
Upper bound: 11801.2
Lower bound: 11576.8
End of CPLEX run. Time: 60.7489 seconds
